c WARNING: for repeatability, setting FPU to use double precision
d VARIABLES            138850       
d CONSTRAINTS          504540       
c ============================[ Problem Statistics ]=============================
c |                                                                             |
c |  Number of variables:        138850                                         |
c |  Number of clauses:          504540                                         |
c |  Parse time:                   0.08 s                                       |
c |                                                                             |
c ============================[ Search Statistics ]==============================
c | Conflicts |          ORIGINAL         |          LEARNT          | Progress |
c |           |    Vars  Clauses Literals |    Limit  Clauses Lit/Cl |          |
c ===============================================================================
c |       100 |  108670   426318  1071707 |   156316      100      4 | 21.736 % |
c |       250 |  108670   426318  1071707 |   171948      250      5 | 21.736 % |
c |       475 |  108670   426318  1071707 |   189143      475      7 | 21.736 % |
c |       812 |  108670   426318  1071707 |   208057      812      8 | 21.736 % |
c |      1318 |  108670   426318  1071707 |   228863     1318      8 | 21.736 % |
c |      2077 |  108670   426318  1071707 |   251749     2077      9 | 21.736 % |
c |      3216 |  108670   426318  1071707 |   276924     3216     15 | 21.736 % |
c |      4924 |  108670   426318  1071707 |   304616     4924     16 | 21.736 % |
c |      7486 |  108670   426318  1071707 |   335078     7486     22 | 21.736 % |
c |     11330 |  108670   426318  1071707 |   368586    11330     31 | 21.736 % |
c |     17096 |  108670   426318  1071707 |   405445    17096     37 | 21.736 % |
c |     25745 |  108670   426318  1071707 |   445989    25745     55 | 21.736 % |
c |     38719 |  108669   426310  1071689 |   490588    38717     58 | 21.736 % |
c |     58180 |  108666   426286  1071635 |   539647    58171     65 | 21.739 % |
c |     87372 |  108652   426214  1071463 |   593612    87324     71 | 21.749 % |
c |    131161 |  108651   426206  1071445 |   652973   131108     71 | 21.749 % |
c |    196845 |  108619   426082  1071135 |   718270   196708     59 | 21.772 % |
c |    295371 |  108615   426054  1071069 |   790097   295198     49 | 21.775 % |
c ===============================================================================
c restarts              : 1021
c conflicts             : 430532         (5002 /sec)
c decisions             : 1332506        (0.00 % random) (15482 /sec)
c propagations          : 370665534      (4306590 /sec)
c conflict literals     : 16983355       (28.72 % deleted)
d RESTARTS             1021
d FAILURES             430532       
d NODES                1332506      
d BACKTRACKS           1332506      
d PROPAGATIONS         370665534    
d NOGOODSIZE           39.45 
d MEMORY               135.00 
d TIME                 86.0694 

s UNSATISFIABLE
